Cars = 1..200;
Options = 1..5;
Classes = 1..25;
sequenceMinCapacity = [0, 0, 0, 0, 0];
sequenceMaxCapacity = [1, 2, 1, 2, 1];
sequenceSize = [2, 3, 3, 5, 5];
numOrdered = [2, 20, 6, 6, 19, 11, 6, 4, 6, 8, 2, 6, 1, 3, 5, 43, 8, 14, 1, 2, 6, 2, 15, 1, 3];
classHasOption = [| true,  true, false, false,  true
                  |false, false, false,  true, false
                  |false,  true, false, false,  true
                  | true, false, false, false,  true
                  | true, false, false, false, false
                  | true,  true, false, false, false
                  |false, false,  true,  true, false
                  |false, false, false,  true,  true
                  | true, false, false,  true, false
                  |false,  true,  true, false, false
                  |false, false,  true,  true,  true
                  | true,  true,  true, false, false
                  |false,  true,  true,  true,  true
                  |false,  true,  true,  true, false
                  | true, false,  true,  true, false
                  |false,  true, false, false, false
                  |false, false, false, false,  true
                  |false,  true, false,  true, false
                  | true, false,  true, false, false
                  | true,  true,  true, false,  true
                  | true,  true, false,  true, false
                  |false,  true, false,  true,  true
                  |false, false,  true, false, false
                  | true,  true,  true, false, false
                  |false, false,  true, false,  true|];
optionOrdering = [5, 3, 4, 1, 2];
